param large_roll_width := 70;
param M := 4;
param N := 49;

param roll_width_options := 
    1 17
    2 14
    3 11
    4 8.5
;

param demands := 
    1 40
    2 65
    3 80
    4 75
;

param patterns : 1 2 3 4 :=
1 4 0 0 0
2 3 1 0 0
3 3 0 1 0
4 2 2 0 0
5 3 0 0 2
6 2 1 2 0
7 2 1 1 1
8 2 1 0 2
9 2 0 3 0
10 2 0 2 1
11 2 0 1 2
12 1 3 1 0
13 1 3 0 1
14 1 2 2 0
15 1 2 1 1
16 1 2 0 2
17 1 1 3 0
18 0 5 0 0
19 0 4 1 0
20 0 4 0 1
21 0 3 2 0
22 2 0 0 4
23 1 1 2 2
24 1 1 1 3
25 1 1 0 4
26 1 0 4 1
27 1 0 3 2
28 1 0 2 3
29 1 0 1 4
30 0 3 1 2
31 0 3 0 3
32 0 2 3 1
33 0 2 2 2
34 0 2 1 3
35 0 2 0 4
36 0 1 5 0
37 0 1 4 1
38 0 1 3 2
39 0 0 6 0
40 0 0 5 1
41 1 0 0 6
42 0 1 2 4
43 0 1 1 5
44 0 1 0 6
45 0 0 4 3
46 0 0 3 4
47 0 0 2 5
48 0 0 1 6
49 0 0 0 8
;